c Random generated cnf formula, satisfiable: true
p cnf 10 50
-3 -2 4 0
-4 -2 7 0
5 4 -3 0
-8 10 -5 0
-7 -2 4 0
-5 -10 -3 0
-5 6 4 0
1 6 5 0
-6 7 4 0
-2 1 9 0
-7 -2 6 0
10 9 -4 0
-9 7 3 0
-8 1 -3 0
-10 5 9 0
9 10 -4 0
9 -6 -2 0
4 -7 9 0
1 -6 7 0
4 -5 1 0
-3 10 5 0
-3 -10 -5 0
-5 9 10 0
-2 8 -10 0
8 -3 -7 0
3 -7 9 0
-10 -8 5 0
-7 8 -6 0
-8 -5 10 0
-4 6 5 0
-1 -10 3 0
-5 -1 -10 0
-4 3 -8 0
2 10 -5 0
-3 -6 -9 0
-8 -6 -2 0
-5 2 -3 0
9 5 -3 0
1 -4 -10 0
-3 -9 8 0
-4 -3 -1 0
-4 -9 10 0
-3 10 6 0
-1 -9 5 0
9 -4 3 0
8 7 4 0
-10 -9 -3 0
1 4 -6 0
-3 1 9 0
6 -5 -8 0
